
  22    4
  10   10   10   10

   0   0   0   0   0   7 2 3 4 7 8 10 15 
   9  10  10  10  10   4 18 13 11 5 
   6  10  10  10  10   6 21 19 18 13 12 9 
   1  10  10  10  10   3 19 14 6 
   7  10  10  10  10   5 21 20 19 16 12 
   9  10  10  10  10   4 18 16 12 11 
   8  10  10  10  10   4 20 19 18 13 
   1  10  10  10  10   3 19 18 13 
   4  10  10  10  10   2 16 11 
   4  10  10  10  10   1 11 
   9  10  10  10  10   1 17 
   2  10  10  10  10   1 17 
   2  10  10  10  10   1 16 
   8  10  10  10  10   1 17 
   7  10  10  10  10   1 16 
   6  10  10  10  10   1 22
   6  10  10  10  10   1 22
   4  10  10  10  10   1 22
   5  10  10  10  10   1 22
   1  10  10  10  10   1 22
   9  10  10  10  10   1 22
   0   0   0   0   0   0 
